words_hard_train/6782.qaiger
aag 63 13 0 1 50
2
4
8
12
16
24
38
46
54
78
86
98
100
126
6 2 4
10 6 8
14 10 12
18 15 17
20 14 16
22 19 21
26 22 25
28 23 24
30 27 29
32 11 13
34 33 15
36 31 35
40 30 38
42 37 41
44 39 25
48 45 46
50 44 47
52 49 51
56 21 55
58 20 54
60 57 59
62 52 61
64 42 63
66 34 39
68 67 3
70 9 5
72 68 70
74 53 60
76 72 75
80 51 78
82 50 79
84 81 83
88 59 87
90 58 86
92 89 91
94 85 92
96 76 95
102 98 101
104 99 100
106 103 105
108 106 83
110 107 82
112 109 111
114 113 90
116 112 91
118 115 117
120 84 93
122 119 121
124 96 122
126 64 124
i0 2 y2[0]
i1 2 y2[2]
i2 2 y2[1]
i3 2 y2[3]
i4 2 y2[4]
i5 1 x2[1]
i6 1 x2[0]
i7 1 x2[2]
i8 2 y2[5]
i9 1 x2[3]
i10 2 y2[6]
i11 1 x2[4]
i12 2 y2[7]
o0 bool[0]
c
simplified
  ==
    add
      2 y2
      1
    subtract
      1
      << 3
        1 x2
