words_hard_train/6782.qaiger.qdimacs
p cnf 63 151
a 39 12 49 19 23 0
e 1 2 3 4 5 6 7 8 9 10 11 13 14 15 16 17 18 20 21 22 24 25 26 27 28 29 30 31 32 33 34 35 36 37 38 40 41 42 43 44 45 46 47 48 50 51 52 53 54 55 56 57 58 59 60 61 62 63 0
-1 -2 3 0
1 -3 0
2 -3 0
-3 -4 5 0
3 -5 0
4 -5 0
-5 -6 7 0
5 -7 0
6 -7 0
7 8 9 0
-7 -9 0
-8 -9 0
-7 -8 10 0
7 -10 0
8 -10 0
9 10 11 0
-9 -11 0
-10 -11 0
-11 12 13 0
11 -13 0
-12 -13 0
11 -12 14 0
-11 -14 0
12 -14 0
13 14 15 0
-13 -15 0
-14 -15 0
5 6 16 0
-5 -16 0
-6 -16 0
16 7 17 0
-16 -17 0
-7 -17 0
15 17 18 0
-15 -18 0
-17 -18 0
-15 -19 20 0
15 -20 0
19 -20 0
18 20 21 0
-18 -21 0
-20 -21 0
19 12 22 0
-19 -22 0
-12 -22 0
22 -23 24 0
-22 -24 0
23 -24 0
-22 23 25 0
22 -25 0
-23 -25 0
24 25 26 0
-24 -26 0
-25 -26 0
10 27 28 0
-10 -28 0
-27 -28 0
-10 -27 29 0
10 -29 0
27 -29 0
28 29 30 0
-28 -30 0
-29 -30 0
-26 30 31 0
26 -31 0
-30 -31 0
-21 31 32 0
21 -32 0
-31 -32 0
-17 19 33 0
17 -33 0
-19 -33 0
33 1 34 0
-33 -34 0
-1 -34 0
4 2 35 0
-4 -35 0
-2 -35 0
-34 -35 36 0
34 -36 0
35 -36 0
26 -30 37 0
-26 -37 0
30 -37 0
-36 37 38 0
36 -38 0
-37 -38 0
25 -39 40 0
-25 -40 0
39 -40 0
-25 39 41 0
25 -41 0
-39 -41 0
40 41 42 0
-40 -42 0
-41 -42 0
29 43 44 0
-29 -44 0
-43 -44 0
-29 -43 45 0
29 -45 0
43 -45 0
44 45 46 0
-44 -46 0
-45 -46 0
42 -46 47 0
-42 -47 0
46 -47 0
-38 47 48 0
38 -48 0
-47 -48 0
-49 50 51 0
49 -51 0
-50 -51 0
49 -50 52 0
-49 -52 0
50 -52 0
51 52 53 0
-51 -53 0
-52 -53 0
-53 41 54 0
53 -54 0
-41 -54 0
53 -41 55 0
-53 -55 0
41 -55 0
54 55 56 0
-54 -56 0
-55 -56 0
56 -45 57 0
-56 -57 0
45 -57 0
-56 45 58 0
56 -58 0
-45 -58 0
57 58 59 0
-57 -59 0
-58 -59 0
-42 46 60 0
42 -60 0
-46 -60 0
59 60 61 0
-59 -61 0
-60 -61 0
-48 -61 62 0
48 -62 0
61 -62 0
-32 -62 63 0
32 -63 0
62 -63 0
63 0
